p cnf 12 50 
10 -11 8 0
-4 -5 9 0
8 3 10 0
9 1 12 0
2 4 3 0
-4 11 -7 0
9 -1 -2 0
-12 2 5 0
-8 -10 -4 0
-5 -3 10 0
-11 -1 12 0
-8 4 1 0
2 5 4 0
-10 -8 -1 0
-3 12 2 0
4 -2 -6 0
11 -6 -1 0
8 5 9 0
9 -12 -3 0
-6 2 -7 0
12 -10 4 0
-4 2 3 0
6 -9 7 0
-3 11 -12 0
-9 10 4 0
7 9 12 0
-7 2 9 0
9 12 -3 0
12 10 11 0
-7 -10 -1 0
4 -1 -5 0
-8 -1 12 0
-7 -4 6 0
-12 -10 -9 0
9 6 4 0
-3 11 5 0
8 -10 1 0
-4 12 -5 0
-8 2 11 0
-4 5 -7 0
-9 5 2 0
3 -2 11 0
-10 4 -1 0
3 12 -11 0
-10 -2 9 0
-9 -8 -5 0
1 4 -12 0
9 3 12 0
-9 8 2 0
8 -6 5 0
